NAME 
ROWS
 N  OBJ
 L  R0      
 L  R1      
 L  R2      
 E  R3      
 E  R4      
 E  R5      
 E  R6      
 E  R7      
 E  R8      
 E  R9      
 E  R10     
 E  R11     
 E  R12     
COLUMNS
    MARKER    'MARKER'                 'INTORG'
    I0(7)     OBJ       -13
    I0(7)     R0        111
    I0(7)     R2        -65
    I0(7)     R3        19
    I0(7)     R4        11
    I0(7)     R5        6
    I0(7)     R6        1
    I0(7)     R12       1
    I1(9)     OBJ       102
    I1(9)     R0        72
    I1(9)     R1        120
    I1(9)     R2        -125
    I1(9)     R3        11
    I1(9)     R4        11
    I1(9)     R5        19
    I1(9)     R6        12
    I1(9)     R7        16
    I1(9)     R12       1
    I2(8)     OBJ       -191
    I2(8)     R0        89
    I2(8)     R1        181
    I2(8)     R2        18
    I2(8)     R3        4
    I2(8)     R4        1
    I2(8)     R6        9
    I2(8)     R7        5
    I2(8)     R12       1
    I3(8)     OBJ       16
    I3(8)     R0        -145
    I3(8)     R1        107
    I3(8)     R2        -28
    I3(8)     R3        11
    I3(8)     R4        15
    I3(8)     R6        12
    I3(8)     R7        11
    I3(8)     R12       1
    I4(7)     OBJ       192
    I4(7)     R0        22
    I4(7)     R1        9
    I4(7)     R2        101
    I4(7)     R3        7
    I4(7)     R5        8
    I4(7)     R7        12
    I4(7)     R12       1
    MARKER    'MARKER'                 'INTEND'
    C5(9)     OBJ       3
    C5(9)     R0        4
    C5(9)     R1        9
    C5(9)     R2        -9
    C5(9)     R3        17
    C5(9)     R5        -1
    C5(9)     R6        -1
    C5(9)     R7        4
    C5(9)     R8        14
    C5(9)     R9        5
    C6(9)     OBJ       9
    C6(9)     R0        4
    C6(9)     R1        9
    C6(9)     R2        -9
    C6(9)     R3        16
    C6(9)     R4        19
    C6(9)     R6        12
    C6(9)     R8        15
    C6(9)     R10       14
    C6(9)     R11       4
    C7(9)     OBJ       -3
    C7(9)     R0        4
    C7(9)     R1        9
    C7(9)     R2        -9
    C7(9)     R3        10
    C7(9)     R5        2
    C7(9)     R6        8
    C7(9)     R8        9
    C7(9)     R9        5
    C7(9)     R10       8
    C8(11)    R0        -6
    C8(11)    R1        2
    C8(11)    R2        4
    C8(11)    R3        10
    C8(11)    R4        17
    C8(11)    R5        8
    C8(11)    R6        17
    C8(11)    R8        11
    C8(11)    R9        19
    C8(11)    R10       13
    C8(11)    R11       4
    C9(12)    OBJ       4
    C9(12)    R0        -5
    C9(12)    R1        -6
    C9(12)    R2        1
    C9(12)    R3        13
    C9(12)    R4        11
    C9(12)    R5        4
    C9(12)    R6        6
    C9(12)    R7        17
    C9(12)    R8        3
    C9(12)    R9        17
    C9(12)    R10       5
    C9(12)    R11       15
    C10(1)    R3        1
    C11(1)    R4        1
    C12(1)    R5        1
    C13(1)    R6        1
    C14(1)    R7        1
    C15(1)    R8        1
    C16(1)    R9        1
    C17(1)    R10       1
    C18(1)    R11       1
    C19(1)    R12       1
RHS
    RHS1      R0        109.8
    RHS1      R1        227.8
    RHS1      R2        -2.8799999999999997e+01
    RHS1      R3        56
    RHS1      R4        61
    RHS1      R5        69
    RHS1      R6        86
    RHS1      R7        53
    RHS1      R8        72
    RHS1      R9        93
    RHS1      R10       64
    RHS1      R11       50
    RHS1      R12       1
BOUNDS
 UP BND1      I0(7)     1
 UP BND1      I1(9)     1
 UP BND1      I2(8)     1
 UP BND1      I3(8)     1
 UP BND1      I4(7)     1
ENDATA
